(set-info :smt-lib-version 2.6)
(set-logic UF)
(set-info :source |Benchmarks from the paper: "Extending Sledgehammer with SMT Solvers" by Jasmin Blanchette, Sascha Bohme, and Lawrence C. Paulson, CADE 2011.  Translated to SMT2 by Andrew Reynolds and Morgan Deters.|)
(set-info :category "industrial")
(set-info :status sat)
(declare-sort S1 0)
(declare-sort S2 0)
(declare-sort S3 0)
(declare-sort S4 0)
(declare-sort S5 0)
(declare-sort S6 0)
(declare-sort S7 0)
(declare-sort S8 0)
(declare-sort S9 0)
(declare-sort S10 0)
(declare-sort S11 0)
(declare-sort S12 0)
(declare-sort S13 0)
(declare-sort S14 0)
(declare-sort S15 0)
(declare-sort S16 0)
(declare-sort S17 0)
(declare-sort S18 0)
(declare-sort S19 0)
(declare-sort S20 0)
(declare-sort S21 0)
(declare-sort S22 0)
(declare-sort S23 0)
(declare-fun f1 () S1)
(declare-fun f2 () S1)
(declare-fun f3 (S3 S2) S4)
(declare-fun f4 () S3)
(declare-fun f5 (S5 S6) S4)
(declare-fun f6 (S7 S3) S5)
(declare-fun f7 () S7)
(declare-fun f8 (S8 S2) S3)
(declare-fun f9 () S8)
(declare-fun f10 (S2 S2) S6)
(declare-fun f11 () S2)
(declare-fun f12 () S2)
(declare-fun f13 (S9 S4) S4)
(declare-fun f14 (S10 S4) S9)
(declare-fun f15 () S10)
(declare-fun f16 () S10)
(declare-fun f17 (S11 S4) S3)
(declare-fun f18 () S11)
(declare-fun f19 () S3)
(declare-fun f20 (S12 S2) S2)
(declare-fun f21 (S13 S2) S12)
(declare-fun f22 () S13)
(declare-fun f23 () S3)
(declare-fun f24 () S2)
(declare-fun f25 (S14 S3) S8)
(declare-fun f26 (S15 S2) S14)
(declare-fun f27 () S15)
(declare-fun f28 () S15)
(declare-fun f29 () S3)
(declare-fun f30 (S6 S2) S1)
(declare-fun f31 (S2) S6)
(declare-fun f32 () S4)
(declare-fun f33 (S16 S3) S3)
(declare-fun f34 (S17 S2) S16)
(declare-fun f35 () S17)
(declare-fun f36 () S17)
(declare-fun f37 () S12)
(declare-fun f38 (S18 S2) S19)
(declare-fun f39 () S18)
(declare-fun f40 (S20 S19) S19)
(declare-fun f41 (S21 S19) S20)
(declare-fun f42 () S21)
(declare-fun f43 () S19)
(declare-fun f44 (S22 S19) S18)
(declare-fun f45 () S22)
(declare-fun f46 () S13)
(declare-fun f47 (S19 S19) S1)
(declare-fun f48 (S23 S2) S6)
(assert (not (= f1 f2)))
(assert (forall ((?v0 S2)) (= (f3 f4 ?v0) (f5 (f6 f7 (f8 f9 ?v0)) (f10 f11 f12)))))
(assert (forall ((?v0 S2) (?v1 S2)) (let ((?v_0 (f17 f18 (f3 f19 f12)))) (= (f3 (f8 f9 ?v0) ?v1) (f13 (f14 f15 (f13 (f14 f16 (f3 ?v_0 (f20 (f21 f22 ?v1) ?v0))) (f3 f23 ?v0))) (f3 ?v_0 (f20 (f21 f22 f24) ?v1)))))))
(assert (forall ((?v0 S2) (?v1 S3) (?v2 S2) (?v3 S2)) (= (f3 (f8 (f25 (f26 f27 ?v0) ?v1) ?v2) ?v3) (f13 (f14 f16 (f3 (f17 f18 (f3 f19 ?v0)) (f20 (f21 f22 ?v2) ?v3))) (f3 ?v1 ?v3)))))
(assert (forall ((?v0 S2) (?v1 S3) (?v2 S2) (?v3 S2)) (= (f3 (f8 (f25 (f26 f28 ?v0) ?v1) ?v2) ?v3) (f13 (f14 f15 (f3 ?v1 ?v3)) (f3 (f17 f18 (f3 f19 ?v0)) (f20 (f21 f22 ?v2) ?v3))))))
(assert (not (= (f5 (f6 f7 f4) (f10 f11 f12)) (f13 (f14 f16 (f3 f29 f12)) (f3 f23 f24)))))
(assert (= (f30 (f31 f24) f12) f1))
(assert (forall ((?v0 S4) (?v1 S2) (?v2 S2) (?v3 S2)) (let ((?v_0 (f17 f18 ?v0))) (=> (not (= ?v0 f32)) (= (f13 (f14 f15 (f3 ?v_0 (f20 (f21 f22 ?v1) ?v2))) (f3 ?v_0 (f20 (f21 f22 ?v3) ?v1))) (f3 (f17 f18 (f13 (f14 f15 (f3 ?v_0 ?v2)) (f3 ?v_0 ?v3))) ?v1))))))
(assert (forall ((?v0 S2) (?v1 S3) (?v2 S2)) (= (f3 (f33 (f34 f35 ?v0) ?v1) ?v2) (f5 (f6 f7 (f8 (f25 (f26 f28 ?v0) ?v1) ?v2)) (f10 f11 ?v0)))))
(assert (forall ((?v0 S2) (?v1 S3) (?v2 S2)) (= (f3 (f33 (f34 f36 ?v0) ?v1) ?v2) (f5 (f6 f7 (f8 (f25 (f26 f27 ?v0) ?v1) ?v2)) (f10 f11 ?v0)))))
(assert (forall ((?v0 S2) (?v1 S2)) (= (f20 f37 (f20 (f21 f22 ?v0) ?v1)) (f20 (f21 f22 (f20 f37 ?v0)) (f20 f37 ?v1)))))
(assert (forall ((?v0 S2) (?v1 S2)) (= (f3 f29 (f20 (f21 f22 ?v0) ?v1)) (f13 (f14 f16 (f3 f29 ?v0)) (f3 f29 ?v1)))))
(assert (forall ((?v0 S2) (?v1 S2)) (= (f38 f39 (f20 (f21 f22 ?v0) ?v1)) (f40 (f41 f42 (f38 f39 ?v0)) (f38 f39 ?v1)))))
(assert (= (f38 f39 f11) f43))
(assert (= (f20 f37 f11) f11))
(assert (= (f3 f29 f11) f32))
(assert (forall ((?v0 S4) (?v1 S4) (?v2 S2)) (=> (not (= ?v0 f32)) (= (f3 (f17 f18 (f13 (f14 f15 ?v1) ?v0)) ?v2) (f13 (f14 f15 (f3 (f17 f18 ?v1) ?v2)) (f3 (f17 f18 ?v0) ?v2))))))
(assert (forall ((?v0 S19) (?v1 S2)) (= (= (f38 (f44 f45 ?v0) ?v1) f43) (and (= ?v0 f43) (not (= ?v1 f11))))))
(assert (forall ((?v0 S2) (?v1 S2)) (= (= (f20 (f21 f46 ?v0) ?v1) f11) (and (= ?v0 f11) (not (= ?v1 f11))))))
(assert (forall ((?v0 S4) (?v1 S2)) (= (= (f3 (f17 f18 ?v0) ?v1) f32) (and (= ?v0 f32) (not (= ?v1 f11))))))
(assert (forall ((?v0 S4) (?v1 S4) (?v2 S4)) (= (= ?v0 (f13 (f14 f15 ?v1) ?v2)) (ite (not (= ?v2 f32)) (= (f13 (f14 f16 ?v0) ?v2) ?v1) (= ?v0 f32)))))
(assert (forall ((?v0 S4) (?v1 S4) (?v2 S4)) (= (= (f13 (f14 f15 ?v0) ?v1) ?v2) (ite (not (= ?v1 f32)) (= ?v0 (f13 (f14 f16 ?v2) ?v1)) (= ?v2 f32)))))
(assert (forall ((?v0 S4) (?v1 S4) (?v2 S4)) (=> (not (= ?v0 f32)) (= (= ?v1 (f13 (f14 f15 ?v2) ?v0)) (= (f13 (f14 f16 ?v1) ?v0) ?v2)))))
(assert (forall ((?v0 S4) (?v1 S4) (?v2 S4)) (=> (not (= ?v0 f32)) (= (= (f13 (f14 f15 ?v1) ?v0) ?v2) (= ?v1 (f13 (f14 f16 ?v2) ?v0))))))
(assert (forall ((?v0 S4) (?v1 S4) (?v2 S4)) (=> (not (= ?v0 f32)) (= (f13 (f14 f15 (f13 (f14 f16 ?v1) ?v0)) (f13 (f14 f16 ?v2) ?v0)) (f13 (f14 f15 ?v1) ?v2)))))
(assert (forall ((?v0 S4) (?v1 S4) (?v2 S4)) (let ((?v_0 (f14 f16 ?v0))) (=> (not (= ?v0 f32)) (= (f13 (f14 f15 (f13 ?v_0 ?v1)) (f13 ?v_0 ?v2)) (f13 (f14 f15 ?v1) ?v2))))))
(assert (forall ((?v0 S2)) (=> (= (f30 (f31 ?v0) f11) f1) false)))
(assert (forall ((?v0 S2)) (not (= (f30 (f31 ?v0) ?v0) f1))))
(assert (forall ((?v0 S2) (?v1 S2)) (= (not (= ?v0 ?v1)) (or (= (f30 (f31 ?v0) ?v1) f1) (= (f30 (f31 ?v1) ?v0) f1)))))
(assert (forall ((?v0 S2) (?v1 S2)) (let ((?v_0 (f31 f11))) (= (= (f30 ?v_0 (f20 (f21 f46 ?v0) ?v1)) f1) (or (= (f30 ?v_0 ?v0) f1) (= ?v1 f11))))))
(assert (forall ((?v0 S2) (?v1 S2)) (= (= (f30 (f31 (f20 f37 ?v0)) (f20 f37 ?v1)) f1) (= (f30 (f31 ?v0) ?v1) f1))))
(assert (forall ((?v0 S2) (?v1 S2)) (= (= (f47 (f38 f39 ?v0) (f38 f39 ?v1)) f1) (= (f30 (f31 ?v0) ?v1) f1))))
(assert (forall ((?v0 S2) (?v1 S2)) (=> (not (= ?v0 ?v1)) (=> (=> (= (f30 (f31 ?v0) ?v1) f1) false) (=> (=> (= (f30 (f31 ?v1) ?v0) f1) false) false)))))
(assert (forall ((?v0 S19) (?v1 S19)) (=> (not (= ?v0 ?v1)) (=> (=> (= (f47 ?v0 ?v1) f1) false) (=> (=> (= (f47 ?v1 ?v0) f1) false) false)))))
(assert (forall ((?v0 S2) (?v1 S2) (?v2 S2)) (let ((?v_0 (f21 f46 ?v0))) (=> (= (f30 (f31 f11) ?v0) f1) (=> (= (f30 (f31 (f20 ?v_0 ?v1)) (f20 ?v_0 ?v2)) f1) (= (f30 (f31 ?v1) ?v2) f1))))))
(assert (forall ((?v0 S2)) (=> (= (f30 (f31 ?v0) ?v0) f1) false)))
(assert (forall ((?v0 S2) (?v1 S2)) (=> (= (f30 (f31 ?v0) ?v1) f1) (not (= ?v1 ?v0)))))
(assert (forall ((?v0 S2) (?v1 S2)) (=> (= (f30 (f31 ?v0) ?v1) f1) (not (= ?v0 ?v1)))))
(assert (forall ((?v0 S2) (?v1 S2)) (=> (= (f30 (f31 ?v0) ?v1) f1) (= (f30 (f31 (f20 f37 ?v0)) (f20 f37 ?v1)) f1))))
(assert (forall ((?v0 S2) (?v1 S2)) (=> (= (f30 (f31 ?v0) ?v1) f1) (= (f47 (f38 f39 ?v0) (f38 f39 ?v1)) f1))))
(assert (forall ((?v0 S2) (?v1 S2)) (=> (= (f30 (f31 (f20 f37 ?v0)) (f20 f37 ?v1)) f1) (= (f30 (f31 ?v0) ?v1) f1))))
(assert (forall ((?v0 S2) (?v1 S2)) (=> (= (f47 (f38 f39 ?v0) (f38 f39 ?v1)) f1) (= (f30 (f31 ?v0) ?v1) f1))))
(assert (forall ((?v0 S2) (?v1 S2) (?v2 S23)) (let ((?v_0 (= (f30 (f48 ?v2 ?v1) ?v0) f1))) (=> (=> (= (f30 (f31 ?v0) ?v1) f1) ?v_0) (=> (=> (= ?v0 ?v1) ?v_0) (=> (=> (= (f30 (f31 ?v1) ?v0) f1) ?v_0) ?v_0))))))
(assert (forall ((?v0 S2)) (=> (=> (= ?v0 f11) false) (= (f30 (f31 f11) ?v0) f1))))
(assert (forall ((?v0 S2) (?v1 S2)) (=> (= (f30 (f31 ?v0) ?v1) f1) (not (= ?v1 f11)))))
(assert (forall ((?v0 S2)) (= (= (f30 (f31 ?v0) f11) f1) false)))
(assert (forall ((?v0 S2)) (= (not (= ?v0 f11)) (= (f30 (f31 f11) ?v0) f1))))
(check-sat)
(exit)
